computational_data/solutions/ER_n30_p020_s7.sol
Optimal - objective value 10.00000000
     11 r_11                        1                       1
     12 r_12                        1                       1
     18 r_18                        1                       1
     24 r_24                        1                       1
     26 r_26                        1                       1
     29 r_29                        1                       1
     30 b_0                         1                       1
     35 b_5                         1                       1
     49 b_19                        1                       1
     57 b_27                        1                       1
