computational_data/logs/ER_n30_p020_s7.log
Welcome to the CBC MILP Solver 
Version: 2.10.12 
Build Date: Aug 20 2024 

command line - /opt/homebrew/bin/cbc computational_data/lp/ER_n30_p020_s7.lp seconds 10.0 solve solu computational_data/solutions/ER_n30_p020_s7.sol (default strategy 1)
seconds was changed from 1e+100 to 10
Continuous objective value is 6.47368 - 0.00 seconds
Cgl0003I 0 fixed, 0 tightened bounds, 84 strengthened rows, 0 substitutions
Cgl0003I 0 fixed, 0 tightened bounds, 80 strengthened rows, 0 substitutions
Cgl0003I 0 fixed, 0 tightened bounds, 28 strengthened rows, 0 substitutions
Cgl0003I 0 fixed, 0 tightened bounds, 3 strengthened rows, 0 substitutions
Cgl0003I 0 fixed, 0 tightened bounds, 2 strengthened rows, 0 substitutions
Cgl0004I processed model has 213 rows, 60 columns (60 integer (60 of which binary)) and 993 elements
Cutoff increment increased from 1e-05 to 0.9999
Cbc0038I Initial state - 32 integers unsatisfied sum - 6.47368
Cbc0038I Pass   1: suminf.    6.21341 (29) obj. 6.67683 iterations 16
Cbc0038I Pass   2: suminf.    5.61500 (26) obj. 7.325 iterations 20
Cbc0038I Pass   3: suminf.    3.66667 (11) obj. 8.66667 iterations 30
Cbc0038I Pass   4: suminf.    3.66667 (11) obj. 8.66667 iterations 0
Cbc0038I Pass   5: suminf.    5.50000 (11) obj. 10.5 iterations 26
Cbc0038I Pass   6: suminf.    0.00000 (0) obj. 13 iterations 70
Cbc0038I Solution found of 13
Cbc0038I Rounding solution of 10 is better than previous of 13

Cbc0038I Before mini branch and bound, 17 integers at bound fixed and 0 continuous
Cbc0038I Full problem 213 rows 60 columns, reduced to 170 rows 43 columns - 5 fixed gives 27, 12 - ok now
Cbc0038I Mini branch and bound did not improve solution (0.01 seconds)
Cbc0038I Round again with cutoff of 8.74746
Cbc0038I Pass   7: suminf.    6.21341 (29) obj. 6.67683 iterations 0
Cbc0038I Pass   8: suminf.    5.61500 (26) obj. 7.325 iterations 28
Cbc0038I Pass   9: suminf.    3.66667 (11) obj. 8.66667 iterations 23
Cbc0038I Pass  10: suminf.    3.66667 (11) obj. 8.66667 iterations 0
Cbc0038I Pass  11: suminf.    3.74746 (11) obj. 8.74746 iterations 20
Cbc0038I Pass  12: suminf.    5.22114 (19) obj. 8.74746 iterations 46
Cbc0038I Pass  13: suminf.    3.78520 (22) obj. 8.74746 iterations 29
Cbc0038I Pass  14: suminf.    6.74746 (22) obj. 8.74746 iterations 39
Cbc0038I Pass  15: suminf.    4.74975 (23) obj. 8.74746 iterations 39
Cbc0038I Pass  16: suminf.    4.50000 (24) obj. 8.74746 iterations 15
Cbc0038I Pass  17: suminf.    7.21682 (24) obj. 8.74746 iterations 35
Cbc0038I Pass  18: suminf.    4.21548 (21) obj. 8.74746 iterations 31
Cbc0038I Pass  19: suminf.    3.50635 (22) obj. 8.74746 iterations 7
Cbc0038I Pass  20: suminf.    3.41104 (21) obj. 8.74746 iterations 6
Cbc0038I Pass  21: suminf.    5.41413 (22) obj. 8.74746 iterations 45
Cbc0038I Pass  22: suminf.    4.41751 (12) obj. 8.74746 iterations 30
Cbc0038I Pass  23: suminf.    4.74746 (10) obj. 8.74746 iterations 29
Cbc0038I Pass  24: suminf.    4.50000 (9) obj. 8.5 iterations 20
Cbc0038I Pass  25: suminf.    4.50000 (9) obj. 8.5 iterations 30
Cbc0038I Pass  26: suminf.    5.75762 (23) obj. 8.74746 iterations 62
Cbc0038I Pass  27: suminf.    4.50254 (20) obj. 8.74746 iterations 34
Cbc0038I Pass  28: suminf.    4.39736 (23) obj. 8.74746 iterations 17
Cbc0038I Pass  29: suminf.    4.37581 (24) obj. 8.74746 iterations 6
Cbc0038I Pass  30: suminf.    6.81751 (24) obj. 8.74746 iterations 51
Cbc0038I Pass  31: suminf.    3.79193 (29) obj. 8.74746 iterations 24
Cbc0038I Pass  32: suminf.    3.38937 (24) obj. 8.74746 iterations 23
Cbc0038I Pass  33: suminf.    5.49682 (26) obj. 8.74746 iterations 31
Cbc0038I Pass  34: suminf.    4.14301 (27) obj. 8.74746 iterations 31
Cbc0038I Pass  35: suminf.    6.41413 (20) obj. 8.74746 iterations 63
Cbc0038I Pass  36: suminf.    4.78792 (25) obj. 8.74746 iterations 30
Cbc0038I No solution found this major pass
Cbc0038I Before mini branch and bound, 4 integers at bound fixed and 0 continuous
Cbc0038I Full problem 213 rows 60 columns, reduced to 206 rows 56 columns - 1 fixed gives 189, 51 - still too large
Cbc0038I Mini branch and bound did not improve solution (0.02 seconds)
Cbc0038I After 0.02 seconds - Feasibility pump exiting with objective of 10 - took 0.02 seconds
Cbc0012I Integer solution of 10 found by feasibility pump after 0 iterations and 0 nodes (0.02 seconds)
Cbc0038I Full problem 213 rows 60 columns, reduced to 147 rows 34 columns - 5 fixed gives 8, 4 - ok now
Cbc0031I 18 added rows had average density of 27.888889
Cbc0013I At root node, 18 cuts changed objective from 6.4736842 to 7.2604678 in 100 passes
Cbc0014I Cut generator 0 (Probing) - 1 row cuts average 5.0 elements, 0 column cuts (0 active)  in 0.023 seconds - new frequency is -100
Cbc0014I Cut generator 1 (Gomory) - 1377 row cuts average 60.0 elements, 0 column cuts (0 active)  in 0.026 seconds - new frequency is -100
Cbc0014I Cut generator 2 (Knapsack) - 0 row cuts average 0.0 elements, 0 column cuts (0 active)  in 0.005 seconds - new frequency is -100
Cbc0014I Cut generator 3 (Clique) - 2 row cuts average 3.0 elements, 0 column cuts (0 active)  in 0.006 seconds - new frequency is -100
Cbc0014I Cut generator 4 (MixedIntegerRounding2) - 0 row cuts average 0.0 elements, 0 column cuts (0 active)  in 0.018 seconds - new frequency is -100
Cbc0014I Cut generator 5 (FlowCover) - 0 row cuts average 0.0 elements, 0 column cuts (0 active)  in 0.001 seconds - new frequency is -100
Cbc0014I Cut generator 7 (ZeroHalf) - 200 row cuts average 11.1 elements, 0 column cuts (0 active)  in 0.140 seconds - new frequency is 1
Cbc0010I After 0 nodes, 1 on tree, 10 best solution, best possible 7.2604678 (0.35 seconds)
Cbc0001I Search completed - best objective 10, took 6514 iterations and 22 nodes (0.55 seconds)
Cbc0032I Strong branching done 510 times (12032 iterations), fathomed 5 nodes and fixed 1 variables
Cbc0035I Maximum depth 5, 65 variables fixed on reduced cost
Cuts at root node changed objective from 6.47368 to 7.26047
Probing was tried 100 times and created 1 cuts of which 0 were active after adding rounds of cuts (0.023 seconds)
Gomory was tried 100 times and created 1377 cuts of which 0 were active after adding rounds of cuts (0.026 seconds)
Knapsack was tried 100 times and created 0 cuts of which 0 were active after adding rounds of cuts (0.005 seconds)
Clique was tried 100 times and created 2 cuts of which 0 were active after adding rounds of cuts (0.006 seconds)
MixedIntegerRounding2 was tried 100 times and created 0 cuts of which 0 were active after adding rounds of cuts (0.018 seconds)
FlowCover was tried 100 times and created 0 cuts of which 0 were active after adding rounds of cuts (0.001 seconds)
TwoMirCuts was tried 1 times and created 0 cuts of which 0 were active after adding rounds of cuts (0.000 seconds)
ZeroHalf was tried 160 times and created 374 cuts of which 0 were active after adding rounds of cuts (0.219 seconds)

Result - Optimal solution found

Objective value:                10.00000000
Enumerated nodes:               22
Total iterations:               6514
Time (CPU seconds):             0.56
Time (Wallclock seconds):       0.58

Total time (CPU seconds):       0.56   (Wallclock seconds):       0.58

